row=8;
Board=[|0,9,0,4,2,0,5,0,1,0|0,0,0,0,0,10,0,0,2,8|9,0,10,7,5,0,2,0,0,0|7,0,2,8,9,0,0,1,0,5|0,3,1,5,0,10,4,8,6,0|2,7,4,9,0,0,0,10,5,3|0,0,0,2,7,0,0,8,4,10|0,0,0,0,0,2,0,0,1,0|];
bottom=[1530900,1524096,14400,120960,34020,2419200,30240,1638400,7200
,252000]